dis_win_max =   1.5000000000d+01
dis_win_min =  -1.5000000000d+01
kmesh_tol =   1.0000000000d-05
mp_grid = 8, 8, 8
num_bands = 48
num_iter = 100
num_wann = 14

begin atoms_cart
ang
Sr         0.0000000000       0.0000000000       0.0000000000 
V         1.9232600000       1.9232600000       1.9232600000 
O         1.9232600000       1.9232600000       0.0000000000 
O         1.9232600000       0.0000000000       0.0000000000 
O         0.0000000000       1.9232600000       0.0000000000 
end atoms_cart

begin kpoints
      0.0000000000       0.0000000000       0.0000000000
      0.0000000000       0.0000000000       0.1250000000
      0.0000000000       0.0000000000       0.2500000000
      0.0000000000       0.0000000000       0.3750000000
      0.0000000000       0.0000000000       0.5000000000
      0.0000000000       0.0000000000       0.6250000000
      0.0000000000       0.0000000000       0.7500000000
      0.0000000000       0.0000000000       0.8750000000
      0.0000000000       0.1250000000       0.0000000000
      0.0000000000       0.1250000000       0.1250000000
      0.0000000000       0.1250000000       0.2500000000
      0.0000000000       0.1250000000       0.3750000000
      0.0000000000       0.1250000000       0.5000000000
      0.0000000000       0.1250000000       0.6250000000
      0.0000000000       0.1250000000       0.7500000000
      0.0000000000       0.1250000000       0.8750000000
      0.0000000000       0.2500000000       0.0000000000
      0.0000000000       0.2500000000       0.1250000000
      0.0000000000       0.2500000000       0.2500000000
      0.0000000000       0.2500000000       0.3750000000
      0.0000000000       0.2500000000       0.5000000000
      0.0000000000       0.2500000000       0.6250000000
      0.0000000000       0.2500000000       0.7500000000
      0.0000000000       0.2500000000       0.8750000000
      0.0000000000       0.3750000000       0.0000000000
      0.0000000000       0.3750000000       0.1250000000
      0.0000000000       0.3750000000       0.2500000000
      0.0000000000       0.3750000000       0.3750000000
      0.0000000000       0.3750000000       0.5000000000
      0.0000000000       0.3750000000       0.6250000000
      0.0000000000       0.3750000000       0.7500000000
      0.0000000000       0.3750000000       0.8750000000
      0.0000000000       0.5000000000       0.0000000000
      0.0000000000       0.5000000000       0.1250000000
      0.0000000000       0.5000000000       0.2500000000
      0.0000000000       0.5000000000       0.3750000000
      0.0000000000       0.5000000000       0.5000000000
      0.0000000000       0.5000000000       0.6250000000
      0.0000000000       0.5000000000       0.7500000000
      0.0000000000       0.5000000000       0.8750000000
      0.0000000000       0.6250000000       0.0000000000
      0.0000000000       0.6250000000       0.1250000000
      0.0000000000       0.6250000000       0.2500000000
      0.0000000000       0.6250000000       0.3750000000
      0.0000000000       0.6250000000       0.5000000000
      0.0000000000       0.6250000000       0.6250000000
      0.0000000000       0.6250000000       0.7500000000
      0.0000000000       0.6250000000       0.8750000000
      0.0000000000       0.7500000000       0.0000000000
      0.0000000000       0.7500000000       0.1250000000
      0.0000000000       0.7500000000       0.2500000000
      0.0000000000       0.7500000000       0.3750000000
      0.0000000000       0.7500000000       0.5000000000
      0.0000000000       0.7500000000       0.6250000000
      0.0000000000       0.7500000000       0.7500000000
      0.0000000000       0.7500000000       0.8750000000
      0.0000000000       0.8750000000       0.0000000000
      0.0000000000       0.8750000000       0.1250000000
      0.0000000000       0.8750000000       0.2500000000
      0.0000000000       0.8750000000       0.3750000000
      0.0000000000       0.8750000000       0.5000000000
      0.0000000000       0.8750000000       0.6250000000
      0.0000000000       0.8750000000       0.7500000000
      0.0000000000       0.8750000000       0.8750000000
      0.1250000000       0.0000000000       0.0000000000
      0.1250000000       0.0000000000       0.1250000000
      0.1250000000       0.0000000000       0.2500000000
      0.1250000000       0.0000000000       0.3750000000
      0.1250000000       0.0000000000       0.5000000000
      0.1250000000       0.0000000000       0.6250000000
      0.1250000000       0.0000000000       0.7500000000
      0.1250000000       0.0000000000       0.8750000000
      0.1250000000       0.1250000000       0.0000000000
      0.1250000000       0.1250000000       0.1250000000
      0.1250000000       0.1250000000       0.2500000000
      0.1250000000       0.1250000000       0.3750000000
      0.1250000000       0.1250000000       0.5000000000
      0.1250000000       0.1250000000       0.6250000000
      0.1250000000       0.1250000000       0.7500000000
      0.1250000000       0.1250000000       0.8750000000
      0.1250000000       0.2500000000       0.0000000000
      0.1250000000       0.2500000000       0.1250000000
      0.1250000000       0.2500000000       0.2500000000
      0.1250000000       0.2500000000       0.3750000000
      0.1250000000       0.2500000000       0.5000000000
      0.1250000000       0.2500000000       0.6250000000
      0.1250000000       0.2500000000       0.7500000000
      0.1250000000       0.2500000000       0.8750000000
      0.1250000000       0.3750000000       0.0000000000
      0.1250000000       0.3750000000       0.1250000000
      0.1250000000       0.3750000000       0.2500000000
      0.1250000000       0.3750000000       0.3750000000
      0.1250000000       0.3750000000       0.5000000000
      0.1250000000       0.3750000000       0.6250000000
      0.1250000000       0.3750000000       0.7500000000
      0.1250000000       0.3750000000       0.8750000000
      0.1250000000       0.5000000000       0.0000000000
      0.1250000000       0.5000000000       0.1250000000
      0.1250000000       0.5000000000       0.2500000000
      0.1250000000       0.5000000000       0.3750000000
      0.1250000000       0.5000000000       0.5000000000
      0.1250000000       0.5000000000       0.6250000000
      0.1250000000       0.5000000000       0.7500000000
      0.1250000000       0.5000000000       0.8750000000
      0.1250000000       0.6250000000       0.0000000000
      0.1250000000       0.6250000000       0.1250000000
      0.1250000000       0.6250000000       0.2500000000
      0.1250000000       0.6250000000       0.3750000000
      0.1250000000       0.6250000000       0.5000000000
      0.1250000000       0.6250000000       0.6250000000
      0.1250000000       0.6250000000       0.7500000000
      0.1250000000       0.6250000000       0.8750000000
      0.1250000000       0.7500000000       0.0000000000
      0.1250000000       0.7500000000       0.1250000000
      0.1250000000       0.7500000000       0.2500000000
      0.1250000000       0.7500000000       0.3750000000
      0.1250000000       0.7500000000       0.5000000000
      0.1250000000       0.7500000000       0.6250000000
      0.1250000000       0.7500000000       0.7500000000
      0.1250000000       0.7500000000       0.8750000000
      0.1250000000       0.8750000000       0.0000000000
      0.1250000000       0.8750000000       0.1250000000
      0.1250000000       0.8750000000       0.2500000000
      0.1250000000       0.8750000000       0.3750000000
      0.1250000000       0.8750000000       0.5000000000
      0.1250000000       0.8750000000       0.6250000000
      0.1250000000       0.8750000000       0.7500000000
      0.1250000000       0.8750000000       0.8750000000
      0.2500000000       0.0000000000       0.0000000000
      0.2500000000       0.0000000000       0.1250000000
      0.2500000000       0.0000000000       0.2500000000
      0.2500000000       0.0000000000       0.3750000000
      0.2500000000       0.0000000000       0.5000000000
      0.2500000000       0.0000000000       0.6250000000
      0.2500000000       0.0000000000       0.7500000000
      0.2500000000       0.0000000000       0.8750000000
      0.2500000000       0.1250000000       0.0000000000
      0.2500000000       0.1250000000       0.1250000000
      0.2500000000       0.1250000000       0.2500000000
      0.2500000000       0.1250000000       0.3750000000
      0.2500000000       0.1250000000       0.5000000000
      0.2500000000       0.1250000000       0.6250000000
      0.2500000000       0.1250000000       0.7500000000
      0.2500000000       0.1250000000       0.8750000000
      0.2500000000       0.2500000000       0.0000000000
      0.2500000000       0.2500000000       0.1250000000
      0.2500000000       0.2500000000       0.2500000000
      0.2500000000       0.2500000000       0.3750000000
      0.2500000000       0.2500000000       0.5000000000
      0.2500000000       0.2500000000       0.6250000000
      0.2500000000       0.2500000000       0.7500000000
      0.2500000000       0.2500000000       0.8750000000
      0.2500000000       0.3750000000       0.0000000000
      0.2500000000       0.3750000000       0.1250000000
      0.2500000000       0.3750000000       0.2500000000
      0.2500000000       0.3750000000       0.3750000000
      0.2500000000       0.3750000000       0.5000000000
      0.2500000000       0.3750000000       0.6250000000
      0.2500000000       0.3750000000       0.7500000000
      0.2500000000       0.3750000000       0.8750000000
      0.2500000000       0.5000000000       0.0000000000
      0.2500000000       0.5000000000       0.1250000000
      0.2500000000       0.5000000000       0.2500000000
      0.2500000000       0.5000000000       0.3750000000
      0.2500000000       0.5000000000       0.5000000000
      0.2500000000       0.5000000000       0.6250000000
      0.2500000000       0.5000000000       0.7500000000
      0.2500000000       0.5000000000       0.8750000000
      0.2500000000       0.6250000000       0.0000000000
      0.2500000000       0.6250000000       0.1250000000
      0.2500000000       0.6250000000       0.2500000000
      0.2500000000       0.6250000000       0.3750000000
      0.2500000000       0.6250000000       0.5000000000
      0.2500000000       0.6250000000       0.6250000000
      0.2500000000       0.6250000000       0.7500000000
      0.2500000000       0.6250000000       0.8750000000
      0.2500000000       0.7500000000       0.0000000000
      0.2500000000       0.7500000000       0.1250000000
      0.2500000000       0.7500000000       0.2500000000
      0.2500000000       0.7500000000       0.3750000000
      0.2500000000       0.7500000000       0.5000000000
      0.2500000000       0.7500000000       0.6250000000
      0.2500000000       0.7500000000       0.7500000000
      0.2500000000       0.7500000000       0.8750000000
      0.2500000000       0.8750000000       0.0000000000
      0.2500000000       0.8750000000       0.1250000000
      0.2500000000       0.8750000000       0.2500000000
      0.2500000000       0.8750000000       0.3750000000
      0.2500000000       0.8750000000       0.5000000000
      0.2500000000       0.8750000000       0.6250000000
      0.2500000000       0.8750000000       0.7500000000
      0.2500000000       0.8750000000       0.8750000000
      0.3750000000       0.0000000000       0.0000000000
      0.3750000000       0.0000000000       0.1250000000
      0.3750000000       0.0000000000       0.2500000000
      0.3750000000       0.0000000000       0.3750000000
      0.3750000000       0.0000000000       0.5000000000
      0.3750000000       0.0000000000       0.6250000000
      0.3750000000       0.0000000000       0.7500000000
      0.3750000000       0.0000000000       0.8750000000
      0.3750000000       0.1250000000       0.0000000000
      0.3750000000       0.1250000000       0.1250000000
      0.3750000000       0.1250000000       0.2500000000
      0.3750000000       0.1250000000       0.3750000000
      0.3750000000       0.1250000000       0.5000000000
      0.3750000000       0.1250000000       0.6250000000
      0.3750000000       0.1250000000       0.7500000000
      0.3750000000       0.1250000000       0.8750000000
      0.3750000000       0.2500000000       0.0000000000
      0.3750000000       0.2500000000       0.1250000000
      0.3750000000       0.2500000000       0.2500000000
      0.3750000000       0.2500000000       0.3750000000
      0.3750000000       0.2500000000       0.5000000000
      0.3750000000       0.2500000000       0.6250000000
      0.3750000000       0.2500000000       0.7500000000
      0.3750000000       0.2500000000       0.8750000000
      0.3750000000       0.3750000000       0.0000000000
      0.3750000000       0.3750000000       0.1250000000
      0.3750000000       0.3750000000       0.2500000000
      0.3750000000       0.3750000000       0.3750000000
      0.3750000000       0.3750000000       0.5000000000
      0.3750000000       0.3750000000       0.6250000000
      0.3750000000       0.3750000000       0.7500000000
      0.3750000000       0.3750000000       0.8750000000
      0.3750000000       0.5000000000       0.0000000000
      0.3750000000       0.5000000000       0.1250000000
      0.3750000000       0.5000000000       0.2500000000
      0.3750000000       0.5000000000       0.3750000000
      0.3750000000       0.5000000000       0.5000000000
      0.3750000000       0.5000000000       0.6250000000
      0.3750000000       0.5000000000       0.7500000000
      0.3750000000       0.5000000000       0.8750000000
      0.3750000000       0.6250000000       0.0000000000
      0.3750000000       0.6250000000       0.1250000000
      0.3750000000       0.6250000000       0.2500000000
      0.3750000000       0.6250000000       0.3750000000
      0.3750000000       0.6250000000       0.5000000000
      0.3750000000       0.6250000000       0.6250000000
      0.3750000000       0.6250000000       0.7500000000
      0.3750000000       0.6250000000       0.8750000000
      0.3750000000       0.7500000000       0.0000000000
      0.3750000000       0.7500000000       0.1250000000
      0.3750000000       0.7500000000       0.2500000000
      0.3750000000       0.7500000000       0.3750000000
      0.3750000000       0.7500000000       0.5000000000
      0.3750000000       0.7500000000       0.6250000000
      0.3750000000       0.7500000000       0.7500000000
      0.3750000000       0.7500000000       0.8750000000
      0.3750000000       0.8750000000       0.0000000000
      0.3750000000       0.8750000000       0.1250000000
      0.3750000000       0.8750000000       0.2500000000
      0.3750000000       0.8750000000       0.3750000000
      0.3750000000       0.8750000000       0.5000000000
      0.3750000000       0.8750000000       0.6250000000
      0.3750000000       0.8750000000       0.7500000000
      0.3750000000       0.8750000000       0.8750000000
      0.5000000000       0.0000000000       0.0000000000
      0.5000000000       0.0000000000       0.1250000000
      0.5000000000       0.0000000000       0.2500000000
      0.5000000000       0.0000000000       0.3750000000
      0.5000000000       0.0000000000       0.5000000000
      0.5000000000       0.0000000000       0.6250000000
      0.5000000000       0.0000000000       0.7500000000
      0.5000000000       0.0000000000       0.8750000000
      0.5000000000       0.1250000000       0.0000000000
      0.5000000000       0.1250000000       0.1250000000
      0.5000000000       0.1250000000       0.2500000000
      0.5000000000       0.1250000000       0.3750000000
      0.5000000000       0.1250000000       0.5000000000
      0.5000000000       0.1250000000       0.6250000000
      0.5000000000       0.1250000000       0.7500000000
      0.5000000000       0.1250000000       0.8750000000
      0.5000000000       0.2500000000       0.0000000000
      0.5000000000       0.2500000000       0.1250000000
      0.5000000000       0.2500000000       0.2500000000
      0.5000000000       0.2500000000       0.3750000000
      0.5000000000       0.2500000000       0.5000000000
      0.5000000000       0.2500000000       0.6250000000
      0.5000000000       0.2500000000       0.7500000000
      0.5000000000       0.2500000000       0.8750000000
      0.5000000000       0.3750000000       0.0000000000
      0.5000000000       0.3750000000       0.1250000000
      0.5000000000       0.3750000000       0.2500000000
      0.5000000000       0.3750000000       0.3750000000
      0.5000000000       0.3750000000       0.5000000000
      0.5000000000       0.3750000000       0.6250000000
      0.5000000000       0.3750000000       0.7500000000
      0.5000000000       0.3750000000       0.8750000000
      0.5000000000       0.5000000000       0.0000000000
      0.5000000000       0.5000000000       0.1250000000
      0.5000000000       0.5000000000       0.2500000000
      0.5000000000       0.5000000000       0.3750000000
      0.5000000000       0.5000000000       0.5000000000
      0.5000000000       0.5000000000       0.6250000000
      0.5000000000       0.5000000000       0.7500000000
      0.5000000000       0.5000000000       0.8750000000
      0.5000000000       0.6250000000       0.0000000000
      0.5000000000       0.6250000000       0.1250000000
      0.5000000000       0.6250000000       0.2500000000
      0.5000000000       0.6250000000       0.3750000000
      0.5000000000       0.6250000000       0.5000000000
      0.5000000000       0.6250000000       0.6250000000
      0.5000000000       0.6250000000       0.7500000000
      0.5000000000       0.6250000000       0.8750000000
      0.5000000000       0.7500000000       0.0000000000
      0.5000000000       0.7500000000       0.1250000000
      0.5000000000       0.7500000000       0.2500000000
      0.5000000000       0.7500000000       0.3750000000
      0.5000000000       0.7500000000       0.5000000000
      0.5000000000       0.7500000000       0.6250000000
      0.5000000000       0.7500000000       0.7500000000
      0.5000000000       0.7500000000       0.8750000000
      0.5000000000       0.8750000000       0.0000000000
      0.5000000000       0.8750000000       0.1250000000
      0.5000000000       0.8750000000       0.2500000000
      0.5000000000       0.8750000000       0.3750000000
      0.5000000000       0.8750000000       0.5000000000
      0.5000000000       0.8750000000       0.6250000000
      0.5000000000       0.8750000000       0.7500000000
      0.5000000000       0.8750000000       0.8750000000
      0.6250000000       0.0000000000       0.0000000000
      0.6250000000       0.0000000000       0.1250000000
      0.6250000000       0.0000000000       0.2500000000
      0.6250000000       0.0000000000       0.3750000000
      0.6250000000       0.0000000000       0.5000000000
      0.6250000000       0.0000000000       0.6250000000
      0.6250000000       0.0000000000       0.7500000000
      0.6250000000       0.0000000000       0.8750000000
      0.6250000000       0.1250000000       0.0000000000
      0.6250000000       0.1250000000       0.1250000000
      0.6250000000       0.1250000000       0.2500000000
      0.6250000000       0.1250000000       0.3750000000
      0.6250000000       0.1250000000       0.5000000000
      0.6250000000       0.1250000000       0.6250000000
      0.6250000000       0.1250000000       0.7500000000
      0.6250000000       0.1250000000       0.8750000000
      0.6250000000       0.2500000000       0.0000000000
      0.6250000000       0.2500000000       0.1250000000
      0.6250000000       0.2500000000       0.2500000000
      0.6250000000       0.2500000000       0.3750000000
      0.6250000000       0.2500000000       0.5000000000
      0.6250000000       0.2500000000       0.6250000000
      0.6250000000       0.2500000000       0.7500000000
      0.6250000000       0.2500000000       0.8750000000
      0.6250000000       0.3750000000       0.0000000000
      0.6250000000       0.3750000000       0.1250000000
      0.6250000000       0.3750000000       0.2500000000
      0.6250000000       0.3750000000       0.3750000000
      0.6250000000       0.3750000000       0.5000000000
      0.6250000000       0.3750000000       0.6250000000
      0.6250000000       0.3750000000       0.7500000000
      0.6250000000       0.3750000000       0.8750000000
      0.6250000000       0.5000000000       0.0000000000
      0.6250000000       0.5000000000       0.1250000000
      0.6250000000       0.5000000000       0.2500000000
      0.6250000000       0.5000000000       0.3750000000
      0.6250000000       0.5000000000       0.5000000000
      0.6250000000       0.5000000000       0.6250000000
      0.6250000000       0.5000000000       0.7500000000
      0.6250000000       0.5000000000       0.8750000000
      0.6250000000       0.6250000000       0.0000000000
      0.6250000000       0.6250000000       0.1250000000
      0.6250000000       0.6250000000       0.2500000000
      0.6250000000       0.6250000000       0.3750000000
      0.6250000000       0.6250000000       0.5000000000
      0.6250000000       0.6250000000       0.6250000000
      0.6250000000       0.6250000000       0.7500000000
      0.6250000000       0.6250000000       0.8750000000
      0.6250000000       0.7500000000       0.0000000000
      0.6250000000       0.7500000000       0.1250000000
      0.6250000000       0.7500000000       0.2500000000
      0.6250000000       0.7500000000       0.3750000000
      0.6250000000       0.7500000000       0.5000000000
      0.6250000000       0.7500000000       0.6250000000
      0.6250000000       0.7500000000       0.7500000000
      0.6250000000       0.7500000000       0.8750000000
      0.6250000000       0.8750000000       0.0000000000
      0.6250000000       0.8750000000       0.1250000000
      0.6250000000       0.8750000000       0.2500000000
      0.6250000000       0.8750000000       0.3750000000
      0.6250000000       0.8750000000       0.5000000000
      0.6250000000       0.8750000000       0.6250000000
      0.6250000000       0.8750000000       0.7500000000
      0.6250000000       0.8750000000       0.8750000000
      0.7500000000       0.0000000000       0.0000000000
      0.7500000000       0.0000000000       0.1250000000
      0.7500000000       0.0000000000       0.2500000000
      0.7500000000       0.0000000000       0.3750000000
      0.7500000000       0.0000000000       0.5000000000
      0.7500000000       0.0000000000       0.6250000000
      0.7500000000       0.0000000000       0.7500000000
      0.7500000000       0.0000000000       0.8750000000
      0.7500000000       0.1250000000       0.0000000000
      0.7500000000       0.1250000000       0.1250000000
      0.7500000000       0.1250000000       0.2500000000
      0.7500000000       0.1250000000       0.3750000000
      0.7500000000       0.1250000000       0.5000000000
      0.7500000000       0.1250000000       0.6250000000
      0.7500000000       0.1250000000       0.7500000000
      0.7500000000       0.1250000000       0.8750000000
      0.7500000000       0.2500000000       0.0000000000
      0.7500000000       0.2500000000       0.1250000000
      0.7500000000       0.2500000000       0.2500000000
      0.7500000000       0.2500000000       0.3750000000
      0.7500000000       0.2500000000       0.5000000000
      0.7500000000       0.2500000000       0.6250000000
      0.7500000000       0.2500000000       0.7500000000
      0.7500000000       0.2500000000       0.8750000000
      0.7500000000       0.3750000000       0.0000000000
      0.7500000000       0.3750000000       0.1250000000
      0.7500000000       0.3750000000       0.2500000000
      0.7500000000       0.3750000000       0.3750000000
      0.7500000000       0.3750000000       0.5000000000
      0.7500000000       0.3750000000       0.6250000000
      0.7500000000       0.3750000000       0.7500000000
      0.7500000000       0.3750000000       0.8750000000
      0.7500000000       0.5000000000       0.0000000000
      0.7500000000       0.5000000000       0.1250000000
      0.7500000000       0.5000000000       0.2500000000
      0.7500000000       0.5000000000       0.3750000000
      0.7500000000       0.5000000000       0.5000000000
      0.7500000000       0.5000000000       0.6250000000
      0.7500000000       0.5000000000       0.7500000000
      0.7500000000       0.5000000000       0.8750000000
      0.7500000000       0.6250000000       0.0000000000
      0.7500000000       0.6250000000       0.1250000000
      0.7500000000       0.6250000000       0.2500000000
      0.7500000000       0.6250000000       0.3750000000
      0.7500000000       0.6250000000       0.5000000000
      0.7500000000       0.6250000000       0.6250000000
      0.7500000000       0.6250000000       0.7500000000
      0.7500000000       0.6250000000       0.8750000000
      0.7500000000       0.7500000000       0.0000000000
      0.7500000000       0.7500000000       0.1250000000
      0.7500000000       0.7500000000       0.2500000000
      0.7500000000       0.7500000000       0.3750000000
      0.7500000000       0.7500000000       0.5000000000
      0.7500000000       0.7500000000       0.6250000000
      0.7500000000       0.7500000000       0.7500000000
      0.7500000000       0.7500000000       0.8750000000
      0.7500000000       0.8750000000       0.0000000000
      0.7500000000       0.8750000000       0.1250000000
      0.7500000000       0.8750000000       0.2500000000
      0.7500000000       0.8750000000       0.3750000000
      0.7500000000       0.8750000000       0.5000000000
      0.7500000000       0.8750000000       0.6250000000
      0.7500000000       0.8750000000       0.7500000000
      0.7500000000       0.8750000000       0.8750000000
      0.8750000000       0.0000000000       0.0000000000
      0.8750000000       0.0000000000       0.1250000000
      0.8750000000       0.0000000000       0.2500000000
      0.8750000000       0.0000000000       0.3750000000
      0.8750000000       0.0000000000       0.5000000000
      0.8750000000       0.0000000000       0.6250000000
      0.8750000000       0.0000000000       0.7500000000
      0.8750000000       0.0000000000       0.8750000000
      0.8750000000       0.1250000000       0.0000000000
      0.8750000000       0.1250000000       0.1250000000
      0.8750000000       0.1250000000       0.2500000000
      0.8750000000       0.1250000000       0.3750000000
      0.8750000000       0.1250000000       0.5000000000
      0.8750000000       0.1250000000       0.6250000000
      0.8750000000       0.1250000000       0.7500000000
      0.8750000000       0.1250000000       0.8750000000
      0.8750000000       0.2500000000       0.0000000000
      0.8750000000       0.2500000000       0.1250000000
      0.8750000000       0.2500000000       0.2500000000
      0.8750000000       0.2500000000       0.3750000000
      0.8750000000       0.2500000000       0.5000000000
      0.8750000000       0.2500000000       0.6250000000
      0.8750000000       0.2500000000       0.7500000000
      0.8750000000       0.2500000000       0.8750000000
      0.8750000000       0.3750000000       0.0000000000
      0.8750000000       0.3750000000       0.1250000000
      0.8750000000       0.3750000000       0.2500000000
      0.8750000000       0.3750000000       0.3750000000
      0.8750000000       0.3750000000       0.5000000000
      0.8750000000       0.3750000000       0.6250000000
      0.8750000000       0.3750000000       0.7500000000
      0.8750000000       0.3750000000       0.8750000000
      0.8750000000       0.5000000000       0.0000000000
      0.8750000000       0.5000000000       0.1250000000
      0.8750000000       0.5000000000       0.2500000000
      0.8750000000       0.5000000000       0.3750000000
      0.8750000000       0.5000000000       0.5000000000
      0.8750000000       0.5000000000       0.6250000000
      0.8750000000       0.5000000000       0.7500000000
      0.8750000000       0.5000000000       0.8750000000
      0.8750000000       0.6250000000       0.0000000000
      0.8750000000       0.6250000000       0.1250000000
      0.8750000000       0.6250000000       0.2500000000
      0.8750000000       0.6250000000       0.3750000000
      0.8750000000       0.6250000000       0.5000000000
      0.8750000000       0.6250000000       0.6250000000
      0.8750000000       0.6250000000       0.7500000000
      0.8750000000       0.6250000000       0.8750000000
      0.8750000000       0.7500000000       0.0000000000
      0.8750000000       0.7500000000       0.1250000000
      0.8750000000       0.7500000000       0.2500000000
      0.8750000000       0.7500000000       0.3750000000
      0.8750000000       0.7500000000       0.5000000000
      0.8750000000       0.7500000000       0.6250000000
      0.8750000000       0.7500000000       0.7500000000
      0.8750000000       0.7500000000       0.8750000000
      0.8750000000       0.8750000000       0.0000000000
      0.8750000000       0.8750000000       0.1250000000
      0.8750000000       0.8750000000       0.2500000000
      0.8750000000       0.8750000000       0.3750000000
      0.8750000000       0.8750000000       0.5000000000
      0.8750000000       0.8750000000       0.6250000000
      0.8750000000       0.8750000000       0.7500000000
      0.8750000000       0.8750000000       0.8750000000
end kpoints

begin projections
V:d
O:p
end projections

begin unit_cell_cart
ang
      3.8465200000       0.0000000000       0.0000000000
      0.0000000000       3.8465200000       0.0000000000
      0.0000000000       0.0000000000       3.8465200000
end unit_cell_cart
