System = LaNiO3

ISMEAR = 0
SIGMA = 0.05
PREC=Accurate
ENCUT = 600.0
ISPIN = 1
#NPAR=6
NCORE=1
LWANNIER90=TRUE
KPAR=72
NELM= 10
