La Ni O
1.0
1.54570441  -2.67723857   4.27977874
1.54570441   2.67723857   4.27977874
-3.09140881   0.00000000   4.27977874
La Ni O
2 2 6
d
0.25000000   0.25000000   0.25000000  La
0.75000000   0.75000000   0.75000000  La
0.00000000   0.00000000   0.00000000  Ni
0.50000000   0.50000000   0.50000000  Ni
0.70478152   0.79521848   0.25000000  O
0.79521848   0.25000000   0.70478152  O
0.25000000   0.70478152   0.79521848  O
0.29521848   0.20478152   0.75000000  O
0.20478152   0.75000000   0.29521848  O
0.75000000   0.29521848   0.20478152  O
